\ Model Bin
\ LP format - for model browsing. Use MPS format to capture full model detail.
Maximize
  min
Subject To
 R0: 43 open[0,0] <= 100
 R1: 43 open[0,1] <= 150
 R2: 43 open[0,2] <= 150
 R3: 43 open[0,3] <= 100
 R4: 47 open[1,0] <= 100
 R5: 47 open[1,1] <= 150
 R6: 47 open[1,2] <= 150
 R7: 47 open[1,3] <= 100
 R8: 43 open[2,0] <= 100
 R9: 43 open[2,1] <= 150
 R10: 43 open[2,2] <= 150
 R11: 43 open[2,3] <= 100
 R12: 40 open[3,0] <= 100
 R13: 40 open[3,1] <= 150
 R14: 40 open[3,2] <= 150
 R15: 40 open[3,3] <= 100
 R16: 47 open[4,0] <= 100
 R17: 47 open[4,1] <= 150
 R18: 47 open[4,2] <= 150
 R19: 47 open[4,3] <= 100
 R20: 53 open[5,0] <= 100
 R21: 53 open[5,1] <= 150
 R22: 53 open[5,2] <= 150
 R23: 53 open[5,3] <= 100
 R24: 56 open[6,0] <= 100
 R25: 56 open[6,1] <= 150
 R26: 56 open[6,2] <= 150
 R27: 56 open[6,3] <= 100
 R28: 15 open[7,0] <= 100
 R29: 15 open[7,1] <= 150
 R30: 15 open[7,2] <= 150
 R31: 15 open[7,3] <= 100
 R32: 57 open[8,0] <= 100
 R33: 57 open[8,1] <= 150
 R34: 57 open[8,2] <= 150
 R35: 57 open[8,3] <= 100
 R36: 59 open[9,0] <= 100
 R37: 59 open[9,1] <= 150
 R38: 59 open[9,2] <= 150
 R39: 59 open[9,3] <= 100
 R40: 3.5 open[0,0] + 1.5 open[1,0] + 3.5 open[2,0] + 1.5 open[3,0]
   + 3.5 open[4,0] + 2.5 open[5,0] + 2.5 open[6,0] + 3.5 open[7,0]
   + 2.5 open[8,0] + 1.5 open[9,0] <= 245
 R41: 3.5 open[0,1] + 1.5 open[1,1] + 3.5 open[2,1] + 1.5 open[3,1]
   + 3.5 open[4,1] + 2.5 open[5,1] + 2.5 open[6,1] + 3.5 open[7,1]
   + 2.5 open[8,1] + 1.5 open[9,1] <= 245
 R42: 3.5 open[0,2] + 1.5 open[1,2] + 3.5 open[2,2] + 1.5 open[3,2]
   + 3.5 open[4,2] + 2.5 open[5,2] + 2.5 open[6,2] + 3.5 open[7,2]
   + 2.5 open[8,2] + 1.5 open[9,2] <= 245
 R43: 3.5 open[0,3] + 1.5 open[1,3] + 3.5 open[2,3] + 1.5 open[3,3]
   + 3.5 open[4,3] + 2.5 open[5,3] + 2.5 open[6,3] + 3.5 open[7,3]
   + 2.5 open[8,3] + 1.5 open[9,3] <= 245
 R44: 0.05375 open[0,0] + 0.0195833333333333 open[1,0] + 0.05375 open[2,0]
   + 0.0166666666666667 open[3,0] + 0.05875 open[4,0]
   + 0.0441666666666667 open[5,0] + 0.0466666666666667 open[6,0]
   + 0.01875 open[7,0] + 0.0475 open[8,0] + 0.0245833333333333 open[9,0]
   - min >= 0
 R45: 0.0358333333333333 open[0,1] + 0.0130555555555556 open[1,1]
   + 0.0358333333333333 open[2,1] + 0.0111111111111111 open[3,1]
   + 0.0391666666666667 open[4,1] + 0.0294444444444444 open[5,1]
   + 0.0311111111111111 open[6,1] + 0.0125 open[7,1]
   + 0.0316666666666667 open[8,1] + 0.0163888888888889 open[9,1] - min
   >= 0
 R46: 0.0358333333333333 open[0,2] + 0.0130555555555556 open[1,2]
   + 0.0358333333333333 open[2,2] + 0.0111111111111111 open[3,2]
   + 0.0391666666666667 open[4,2] + 0.0294444444444444 open[5,2]
   + 0.0311111111111111 open[6,2] + 0.0125 open[7,2]
   + 0.0316666666666667 open[8,2] + 0.0163888888888889 open[9,2] - min
   >= 0
 R47: 0.05375 open[0,3] + 0.0195833333333333 open[1,3] + 0.05375 open[2,3]
   + 0.0166666666666667 open[3,3] + 0.05875 open[4,3]
   + 0.0441666666666667 open[5,3] + 0.0466666666666667 open[6,3]
   + 0.01875 open[7,3] + 0.0475 open[8,3] + 0.0245833333333333 open[9,3]
   - min >= 0
 R48: open[0,0] + open[0,1] + open[0,2] + open[0,3] = 1
 R49: open[1,0] + open[1,1] + open[1,2] + open[1,3] = 1
 R50: open[2,0] + open[2,1] + open[2,2] + open[2,3] = 1
 R51: open[3,0] + open[3,1] + open[3,2] + open[3,3] = 1
 R52: open[4,0] + open[4,1] + open[4,2] + open[4,3] = 1
 R53: open[5,0] + open[5,1] + open[5,2] + open[5,3] = 1
 R54: open[6,0] + open[6,1] + open[6,2] + open[6,3] = 1
 R55: open[7,0] + open[7,1] + open[7,2] + open[7,3] = 1
 R56: open[8,0] + open[8,1] + open[8,2] + open[8,3] = 1
 R57: open[9,0] + open[9,1] + open[9,2] + open[9,3] = 1
Bounds
Binaries
 open[0,0] open[0,1] open[0,2] open[0,3] open[1,0] open[1,1] open[1,2]
 open[1,3] open[2,0] open[2,1] open[2,2] open[2,3] open[3,0] open[3,1]
 open[3,2] open[3,3] open[4,0] open[4,1] open[4,2] open[4,3] open[5,0]
 open[5,1] open[5,2] open[5,3] open[6,0] open[6,1] open[6,2] open[6,3]
 open[7,0] open[7,1] open[7,2] open[7,3] open[8,0] open[8,1] open[8,2]
 open[8,3] open[9,0] open[9,1] open[9,2] open[9,3]
End
